p tw 130 300
0 1
0 2
0 21
0 22
0 41
0 42
0 68
0 69
0 4
0 73
0 81
0 82
0 59
0 86
0 65
0 96
0 121
0 128
1 2
1 7
1 10
2 31
2 92
3 4
3 5
4 5
4 73
5 14
5 15
5 16
5 17
5 28
5 29
5 32
5 33
5 65
5 66
5 71
5 72
5 48
5 75
5 84
5 85
5 88
5 89
5 70
5 113
5 53
5 117
5 90
5 109
5 99
5 119
5 30
5 116
5 56
5 112
6 7
6 8
6 62
6 124
7 8
7 10
8 37
8 38
8 39
8 40
8 43
8 44
8 9
8 47
8 27
8 69
8 86
8 105
8 109
8 110
8 16
8 42
8 93
8 103
8 23
8 125
9 10
9 11
9 47
10 11
10 12
10 13
10 26
10 27
10 34
10 35
10 53
10 54
10 59
10 60
10 37
10 45
10 90
10 91
10 111
10 112
10 108
10 121
10 85
10 127
12 13
13 30
13 31
14 15
15 20
15 74
16 17
16 42
17 31
17 106
18 19
18 20
18 52
18 84
19 20
19 31
19 76
20 74
20 79
20 80
20 97
20 98
20 35
20 99
20 21
20 40
20 44
20 114
20 88
20 118
20 91
20 122
21 22
21 40
22 31
22 55
23 24
23 25
23 125
24 25
25 77
25 78
25 50
25 96
25 83
25 101
25 41
25 107
25 95
25 116
26 27
26 31
26 36
27 69
28 29
28 52
28 93
29 61
29 62
30 31
30 116
31 36
31 33
31 49
31 55
31 56
31 57
31 43
31 67
31 60
31 70
31 76
31 92
31 34
31 102
31 106
32 33
32 45
32 46
33 49
34 35
34 102
35 99
36 52
36 58
37 38
37 45
39 40
39 46
39 123
41 42
41 107
43 44
43 67
44 114
45 46
46 47
46 48
46 71
46 97
46 103
46 104
46 89
46 108
46 51
46 115
46 64
46 100
46 123
46 117
46 125
47 48
48 75
50 51
50 52
50 96
51 52
51 115
52 58
52 63
52 64
52 57
52 83
52 93
52 80
52 120
52 82
52 98
52 122
52 126
52 67
52 78
52 84
53 54
53 117
56 57
56 112
57 83
59 60
59 86
60 70
61 62
62 75
62 87
62 94
62 95
62 74
62 100
62 73
62 79
62 124
62 102
62 129
63 64
64 100
65 66
65 96
67 78
68 69
70 113
71 72
71 97
73 79
74 100
75 87
77 78
79 80
80 120
81 82
82 98
83 101
84 85
85 127
86 105
88 89
88 118
89 108
90 91
90 109
91 122
93 103
94 95
95 116
97 98
99 119
102 129
103 104
108 121
109 110
111 112
117 125
121 128
122 126
